language Essence 1.3

letting class be
        function(1 --> 7, 2 --> 8, 3 --> 10, 4 --> 1, 5 --> 4, 6 --> 9, 7 --> 1, 8 --> 4, 9 --> 4, 10 --> 7, 11 --> 3,
                 12 --> 2, 13 --> 2, 14 --> 9, 15 --> 10, 16 --> 6, 17 --> 6, 18 --> 6, 19 --> 6, 20 --> 4, 21 --> 2,
                 22 --> 7, 23 --> 9, 24 --> 8, 25 --> 3, 26 --> 9, 27 --> 5, 28 --> 6)
letting deck_length be 88
letting deck_width be 18
letting length be
        function(1 --> 1, 2 --> 1, 3 --> 1, 4 --> 1, 5 --> 1, 6 --> 1, 7 --> 1, 8 --> 1, 9 --> 1, 10 --> 1, 11 --> 1,
                 12 --> 1, 13 --> 1, 14 --> 1, 15 --> 2, 16 --> 1, 17 --> 1, 18 --> 1, 19 --> 1, 20 --> 19, 21 --> 2,
                 22 --> 10, 23 --> 1, 24 --> 1, 25 --> 1, 26 --> 1, 27 --> 1, 28 --> 7)
letting n_classes be 10
letting n_containers be 28
letting separation be function({1, 2} --> 84, {1, 3} --> 31, {5, 7} --> 56)
letting width be
        function(1 --> 6, 2 --> 13, 3 --> 9, 4 --> 4, 5 --> 17, 6 --> 9, 7 --> 11, 8 --> 9, 9 --> 5, 10 --> 13,
                 11 --> 4, 12 --> 2, 13 --> 6, 14 --> 5, 15 --> 4, 16 --> 6, 17 --> 10, 18 --> 10, 19 --> 4, 20 --> 15,
                 21 --> 3, 22 --> 17, 23 --> 10, 24 --> 10, 25 --> 10, 26 --> 8, 27 --> 14, 28 --> 16)
